data/solutions/recovery/wellformed/intermediate/binding/wellformed_intermediate_instance68/4.sol
Elapsed time: 0.54
Upper bound: 27640.0
Planning weighted value: 459764844.0
C[0]=27640.0
C[1]=27633.0
C[2]=27603.0
C[3]=27602.0
C[4]=27600.0
C[5]=27597.0
C[6]=27570.0
C[7]=27567.0
C[8]=27522.0
C[9]=27514.0
C[10]=27506.0
C[11]=27503.0
C[12]=27382.0
C[13]=27332.0
y[0]=4
y[1]=4
y[2]=1
y[3]=4
y[4]=4
y[5]=9
y[6]=5
y[7]=4
y[8]=8
y[9]=5
y[10]=11
y[11]=2
y[12]=8
y[13]=6
y[14]=1
y[15]=4
y[16]=11
y[17]=12
y[18]=13
y[19]=2
y[20]=0
y[21]=11
y[22]=10
y[23]=4
y[24]=0
y[25]=1
y[26]=3
y[27]=1
y[28]=13
y[29]=10
y[30]=3
y[31]=4
y[32]=12
y[33]=1
y[34]=7
y[35]=3
y[36]=1
y[37]=10
y[38]=7
y[39]=6
y[40]=9
y[41]=7
y[42]=11
y[43]=4
y[44]=7
y[45]=5
y[46]=13
y[47]=13
y[48]=11
y[49]=8
y[50]=11
y[51]=8
y[52]=9
y[53]=5
y[54]=1
y[55]=7
y[56]=11
y[57]=13
y[58]=7
y[59]=6
y[60]=5
y[61]=0
y[62]=13
y[63]=11
y[64]=3
y[65]=1
y[66]=2
y[67]=2
y[68]=5
y[69]=8
y[70]=12
y[71]=4
y[72]=6
y[73]=6
y[74]=3
y[75]=5
y[76]=2
y[77]=12
y[78]=6
y[79]=7
y[80]=6
y[81]=0
y[82]=13
y[83]=11
y[84]=9
y[85]=5
y[86]=7
y[87]=10
y[88]=2
y[89]=13
y[90]=10
y[91]=1
y[92]=4
y[93]=9
y[94]=13
y[95]=9
y[96]=10
y[97]=0
y[98]=1
y[99]=1
y[100]=9
y[101]=11
y[102]=5
y[103]=0
y[104]=8
y[105]=2
y[106]=3
y[107]=0
y[108]=12
y[109]=11
y[110]=4
y[111]=3
y[112]=9
y[113]=7
y[114]=8
y[115]=11
y[116]=7
y[117]=8
y[118]=6
y[119]=8
y[120]=0
y[121]=1
y[122]=9
y[123]=9
y[124]=5
y[125]=6
y[126]=9
y[127]=4
y[128]=4
y[129]=0
y[130]=11
y[131]=7
y[132]=5
y[133]=12
y[134]=3
y[135]=5
y[136]=13
y[137]=0
y[138]=2
y[139]=8
y[140]=0
y[141]=10
y[142]=3
y[143]=2
y[144]=7
y[145]=1
y[146]=6
y[147]=6
y[148]=5
y[149]=7
y[150]=13
y[151]=2
y[152]=11
y[153]=3
y[154]=2
y[155]=1
y[156]=5
y[157]=10
y[158]=8
y[159]=13
y[160]=7
y[161]=7
y[162]=3
y[163]=8
y[164]=2
y[165]=11
y[166]=5
y[167]=9
y[168]=5
y[169]=12
y[170]=13
y[171]=8
y[172]=0
y[173]=8
y[174]=8
y[175]=12
y[176]=9
y[177]=0
y[178]=10
y[179]=0
y[180]=2
y[181]=2
y[182]=12
y[183]=12
y[184]=8
y[185]=8
y[186]=7
y[187]=11
y[188]=8
y[189]=10
y[190]=13
y[191]=4
y[192]=2
y[193]=4
y[194]=11
y[195]=7
y[196]=4
y[197]=0
y[198]=11
y[199]=4
y[200]=9
y[201]=11
y[202]=1
y[203]=6
y[204]=9
y[205]=6
y[206]=9
y[207]=6
y[208]=1
y[209]=8
y[210]=7
y[211]=8
y[212]=7
y[213]=8
y[214]=5
y[215]=12
y[216]=10
y[217]=3
y[218]=2
y[219]=13
y[220]=10
y[221]=5
y[222]=13
y[223]=9
y[224]=11
y[225]=2
y[226]=0
y[227]=9
y[228]=8
y[229]=12
y[230]=6
y[231]=4
y[232]=0
y[233]=3
y[234]=11
y[235]=11
y[236]=0
y[237]=13
y[238]=11
y[239]=10
y[240]=3
y[241]=2
y[242]=13
y[243]=9
y[244]=8
y[245]=12
y[246]=8
y[247]=6
y[248]=4
y[249]=8
y[250]=7
y[251]=1
y[252]=3
y[253]=0
y[254]=3
y[255]=12
y[256]=3
y[257]=7
y[258]=3
y[259]=9
y[260]=1
y[261]=6
y[262]=8
y[263]=8
y[264]=1
y[265]=12
y[266]=8
y[267]=0
y[268]=8
y[269]=2
y[270]=12
y[271]=3
y[272]=6
y[273]=5
y[274]=1
y[275]=0
y[276]=4
y[277]=0
y[278]=9
y[279]=8
y[280]=9
y[281]=4
y[282]=2
y[283]=10
y[284]=2
y[285]=9
y[286]=12
y[287]=3
y[288]=10
y[289]=6
y[290]=2
y[291]=12
y[292]=13
y[293]=8
y[294]=12
y[295]=9
y[296]=5
y[297]=1
y[298]=6
y[299]=4
y[300]=8
y[301]=10
y[302]=10
y[303]=3
y[304]=13
y[305]=8
y[306]=3
y[307]=13
y[308]=6
y[309]=2
y[310]=10
y[311]=6
y[312]=10
y[313]=8
y[314]=9
y[315]=10
y[316]=4
y[317]=3
y[318]=9
y[319]=11
y[320]=12
y[321]=4
y[322]=8
y[323]=4
y[324]=8
y[325]=2
y[326]=0
y[327]=10
y[328]=6
y[329]=5
y[330]=4
y[331]=4
y[332]=3
y[333]=3
y[334]=6
y[335]=10
y[336]=5
y[337]=5
y[338]=0
y[339]=12
y[340]=6
y[341]=12
y[342]=8
y[343]=11
y[344]=3
y[345]=5
y[346]=13
y[347]=8
y[348]=10
y[349]=3
y[350]=13
y[351]=8
y[352]=12
y[353]=10
y[354]=7
y[355]=8
y[356]=8
y[357]=1
y[358]=7
y[359]=5
y[360]=3
y[361]=12
y[362]=12
y[363]=9
y[364]=0
y[365]=8
y[366]=4
y[367]=11
y[368]=5
y[369]=11
y[370]=0
y[371]=13
y[372]=5
y[373]=5
y[374]=9
y[375]=12
y[376]=3
y[377]=1
y[378]=7
y[379]=2
y[380]=6
y[381]=12
y[382]=13
y[383]=4
y[384]=10
y[385]=4
y[386]=9
y[387]=9
y[388]=7
y[389]=7
y[390]=8
y[391]=8
y[392]=9
y[393]=7
y[394]=0
y[395]=13
y[396]=10
y[397]=8
y[398]=1
y[399]=10
y[400]=12
y[401]=3
y[402]=0
y[403]=4
y[404]=7
y[405]=13
y[406]=5
y[407]=8
y[408]=12
y[409]=10
y[410]=7
y[411]=9
y[412]=1
y[413]=7
y[414]=8
y[415]=11
y[416]=6
y[417]=2
y[418]=10
y[419]=12
y[420]=1
y[421]=3
