data/solutions/recovery/wellformed/intermediate/binding/wellformed_intermediate_instance68/4.log

Log started (V12.6.3.0) Fri Apr 20 22:50:36 2018

New value for default parallel thread count: 1

Problem '/tmp/tmpAz5Ffr.pyomo.lp' read.
Read time = 0.30 sec. (29.65 ticks)

Problem name         : /tmp/tmpAz5Ffr.pyomo.lp
Objective sense      : Minimize
Variables            :    5924  [Nneg: 1,  Binary: 5908,  General Integer: 15]
Objective nonzeros   :       1
Linear constraints   :     873  [Less: 436,  Equal: 437]
  Nonzeros           : 2206021
  RHS nonzeros       :     423

Variables            : Min LB: 0.000000         Max UB: 1.000000       
Objective nonzeros   : Min   : 1.000000         Max   : 1.000000       
Linear constraints   :
  Nonzeros           : Min   : 1.000000         Max   : 1991.000       
  RHS nonzeros       : Min   : 1.000000         Max   : 1.000000       
Tried aggregator 2 times.
MIP Presolve eliminated 823 rows and 5601 columns.
Aggregator did 14 substitutions.
Reduced MIP has 36 rows, 309 columns, and 630 nonzeros.
Reduced MIP has 308 binaries, 1 generals, 0 SOSs, and 0 indicators.
Presolve time = 0.07 sec. (118.70 ticks)
Found incumbent of value 48880.000000 after 0.16 sec. (169.63 ticks)
Probing time = 0.00 sec. (0.41 ticks)
Tried aggregator 1 time.
Reduced MIP has 36 rows, 309 columns, and 630 nonzeros.
Reduced MIP has 308 binaries, 1 generals, 0 SOSs, and 0 indicators.
Presolve time = 0.00 sec. (0.58 ticks)
Probing time = 0.00 sec. (0.41 ticks)
Clique table members: 22.
MIP emphasis: balance optimality and feasibility.
MIP search method: dynamic search.
Parallel mode: none, using 1 thread.
Root relaxation solution time = 0.00 sec. (0.62 ticks)

        Nodes                                         Cuts/
   Node  Left     Objective  IInf  Best Integer    Best Bound    ItCnt     Gap

*     0+    0                        48880.0000    27221.0000            44.31%
      0     0    27540.7857    23    48880.0000    27540.7857       75   43.66%
*     0+    0                        28321.0000    27540.7857             2.75%
      0     0    27541.0000    22    28321.0000      Cuts: 14      145    2.75%
      0     0    27541.0000    35    28321.0000      Cuts: 40      224    2.75%
*     0+    0                        28312.0000    27541.0000             2.72%
      0     0    27546.4381    45    28312.0000      Cuts: 20      309    2.70%
*     0+    0                        28264.0000    27546.4381             2.54%
      0     0    27551.4752    53    28264.0000      Cuts: 32      390    2.52%
*     0+    0                        28116.0000    27551.4752             2.01%
      0     0    27554.6210    47    28116.0000      Cuts: 24      425    2.00%
*     0+    0                        28043.0000    27554.6210             1.74%
      0     0    27558.2310    52    28043.0000      Cuts: 24      470    1.73%
*     0+    0                        28009.0000    27558.2310             1.61%
      0     0    27559.7905    52    28009.0000      Cuts: 16      524    1.60%
*     0+    0                        27853.0000    27559.7905             1.05%
*     0+    0                        27764.0000    27559.7905             0.74%

Repeating presolve.
Tried aggregator 1 time.
MIP Presolve eliminated 0 rows and 99 columns.
Reduced MIP has 36 rows, 210 columns, and 432 nonzeros.
Reduced MIP has 209 binaries, 1 generals, 0 SOSs, and 0 indicators.
Presolve time = 0.00 sec. (0.40 ticks)
Probing time = 0.00 sec. (0.27 ticks)
Tried aggregator 1 time.
Reduced MIP has 36 rows, 210 columns, and 432 nonzeros.
Reduced MIP has 209 binaries, 1 generals, 0 SOSs, and 0 indicators.
Presolve time = 0.00 sec. (0.37 ticks)
Represolve time = 0.00 sec. (2.48 ticks)
Probing time = 0.00 sec. (0.27 ticks)
Clique table members: 93.
MIP emphasis: balance optimality and feasibility.
MIP search method: dynamic search.
Parallel mode: none, using 1 thread.
Root relaxation solution time = 0.00 sec. (0.74 ticks)

        Nodes                                         Cuts/
   Node  Left     Objective  IInf  Best Integer    Best Bound    ItCnt     Gap

*     0+    0                        27764.0000    27559.7905             0.74%
      0     0    27559.9849    41    27764.0000    27559.9849      610    0.73%
      0     0    27567.0438    48    27764.0000      Cuts: 39      712    0.71%
      0     0    27580.5764    41    27764.0000      Cuts: 43      806    0.66%
      0     0    27594.2145    40    27764.0000      Cuts: 25      837    0.61%
      0     0    27594.9357    37    27764.0000      Cuts: 13      860    0.61%
*     0+    0                        27735.0000    27594.9357             0.51%
      0     0    27595.4925    37    27735.0000      Cuts: 11      886    0.50%
*     0+    0                        27709.0000    27595.4925             0.41%
*     0+    0                        27704.0000    27595.4925             0.39%
      0     2    27595.4925    37    27704.0000    27595.6300      886    0.39%
Elapsed time = 0.20 sec. (210.94 ticks, tree = 0.01 MB, solutions = 12)
*    20+   16                        27691.0000    27596.8391             0.34%
*    40+   17                        27665.0000    27597.9770             0.24%
*    48    11      integral     0    27662.0000    27597.9770     1127    0.23%
*    60+    6                        27661.0000    27622.0859             0.14%
*    70+    0                        27640.0000    27640.0000             0.00%

Clique cuts applied:  2
Cover cuts applied:  18
Flow cuts applied:  1
Mixed integer rounding cuts applied:  24
Lift and project cuts applied:  1

Root node processing (before b&c):
  Real time             =    0.20 sec. (211.70 ticks)
Sequential b&c:
  Real time             =    0.01 sec. (7.18 ticks)
                          ------------
Total (root+branch&cut) =    0.21 sec. (218.87 ticks)

Solution pool: 17 solutions saved.

MIP - Integer optimal solution:  Objective =  2.7640000000e+04
Solution time =    0.21 sec.  Iterations = 1326  Nodes = 70
Deterministic time = 218.89 ticks  (1046.47 ticks/sec)


Incumbent solution written to file '/tmp/tmppdNAFr.cplex.sol'.
